40
400
4
76
73
14
63
0 2
0 7
0 8
0 10
0 11
0 12
0 13
0 14
0 15
0 16
0 17
0 20
0 26
0 27
0 28
1 6
1 7
1 8
1 10
1 13
1 15
1 16
1 18
1 20
1 21
1 22
1 23
1 24
1 25
1 26
1 27
1 29
1 32
1 35
1 37
1 38
2 3
2 6
2 8
2 11
2 13
2 16
2 18
2 20
2 22
2 24
2 25
2 29
2 30
2 31
2 32
2 34
2 36
2 39
3 6
3 8
3 9
3 10
3 12
3 13
3 14
3 18
3 19
3 20
3 24
3 25
3 26
3 29
3 31
3 32
3 34
3 37
3 39
4 7
4 8
4 9
4 12
4 15
4 16
4 19
4 23
4 24
4 26
4 28
4 29
4 30
4 31
4 32
4 34
4 36
4 37
4 39
5 6
5 7
5 12
5 13
5 16
5 18
5 22
5 23
5 25
5 28
5 33
5 35
5 38
6 7
6 8
6 9
6 10
6 13
6 15
6 17
6 18
6 21
6 22
6 23
6 24
6 26
6 27
6 28
6 31
6 36
6 38
6 39
7 8
7 10
7 12
7 13
7 14
7 17
7 18
7 19
7 20
7 21
7 22
7 23
7 28
7 30
7 31
7 32
7 35
7 38
7 39
8 9
8 12
8 13
8 14
8 15
8 20
8 21
8 22
8 25
8 27
8 28
8 29
8 31
8 33
8 36
9 10
9 11
9 15
9 16
9 18
9 19
9 20
9 21
9 22
9 25
9 28
9 29
9 32
9 34
9 35
9 37
9 38
9 39
10 12
10 13
10 14
10 16
10 17
10 18
10 19
10 22
10 23
10 25
10 26
10 27
10 28
10 30
10 33
10 35
10 38
11 14
11 15
11 16
11 17
11 18
11 22
11 25
11 28
11 30
11 31
11 33
11 34
11 35
11 38
12 13
12 18
12 20
12 22
12 23
12 24
12 26
12 27
12 28
12 29
12 33
12 35
12 37
12 39
13 16
13 18
13 20
13 21
13 23
13 24
13 26
13 27
13 29
13 30
13 32
13 34
13 36
13 38
14 15
14 18
14 19
14 21
14 22
14 24
14 27
14 29
14 30
14 34
15 16
15 17
15 20
15 22
15 23
15 26
15 29
15 30
15 31
15 32
15 34
15 35
15 36
15 37
15 38
15 39
16 19
16 20
16 24
16 25
16 28
16 30
16 31
16 32
16 33
16 34
16 35
16 36
16 37
17 18
17 21
17 22
17 24
17 25
17 27
17 36
17 38
18 20
18 22
18 24
18 28
18 29
18 30
18 33
18 35
18 37
18 39
19 21
19 22
19 27
19 28
19 29
19 34
19 36
19 37
19 39
20 23
20 26
20 28
20 30
20 31
20 35
20 36
20 37
20 39
21 23
21 24
21 29
21 31
21 32
21 33
21 36
21 37
21 38
22 25
22 29
22 30
22 31
22 32
22 33
22 36
22 39
23 24
23 27
23 28
23 30
23 31
23 32
23 33
23 36
23 38
23 39
24 25
24 26
24 27
24 28
24 29
24 31
24 32
24 33
24 34
24 35
24 36
25 26
25 28
25 29
25 32
25 33
25 34
25 35
25 36
26 28
26 29
26 31
26 35
26 37
26 39
27 30
27 31
27 32
27 33
27 37
27 39
28 31
28 33
28 34
28 37
28 38
28 39
29 32
29 34
29 36
30 31
30 33
30 34
30 36
30 39
31 32
31 34
31 35
31 38
32 34
32 36
32 37
32 38
33 35
33 39
34 35
34 37
34 39
36 37
36 38
37 38
37 39
38 39
23 5 33 3 14 6 20 9 18 28 36 15
32 10 38 27 25 1 30 31 26 2 16 35
29 11 24 37 8 13 39 19 7 17 12 22
21 4 34 0
